p cnf 12 50 
10 9 2 0
-2 -11 12 0
1 -3 -5 0
-6 -7 -10 0
5 10 -3 0
11 -1 -9 0
10 12 7 0
6 -9 2 0
12 1 -10 0
4 -8 -7 0
-7 10 6 0
1 -12 2 0
-4 -2 3 0
-1 10 12 0
12 -4 -6 0
10 3 1 0
-4 -8 10 0
-6 -10 -5 0
10 11 3 0
-12 -10 -2 0
4 -1 3 0
11 4 -7 0
6 2 3 0
11 4 -3 0
-11 -8 -5 0
6 9 7 0
-2 1 9 0
-10 2 -3 0
-9 -7 -2 0
11 -10 6 0
1 -8 9 0
12 3 -5 0
-8 12 9 0
-12 -10 -5 0
-1 -9 12 0
-8 -12 3 0
10 -2 -11 0
-5 11 12 0
7 9 4 0
-10 2 -11 0
-9 4 3 0
-11 -12 5 0
-3 -2 -11 0
3 -11 -2 0
-2 6 3 0
-8 2 -6 0
10 -12 -7 0
7 4 -2 0
10 9 -5 0
3 -10 -11 0
